WARNING: for repeatability, setting FPU to use double precision
============================[ Problem Statistics ]=============================
|                                                                             |
|  Number of variables:           100                                         |
|  Number of clauses:             449                                         |
|  Parse time:                   0.00 s                                       |
|  Eliminated clauses:           0.00 Mb                                      |
|  Simplification time:          0.00 s                                       |
|                                                                             |
============================[ Search Statistics ]==============================
| Conflicts |          ORIGINAL         |          LEARNT          | Progress |
|           |    Vars  Clauses Literals |    Limit  Clauses Lit/Cl |          |
===============================================================================
|       100 |      98      447     1355 |      163      100      8 |  0.010 % |
|       250 |      98      447     1355 |      180      166      7 |  0.010 % |
|       475 |      97      439     1331 |      198      111      6 |  1.010 % |
===============================================================================
restarts              : 5
conflicts             : 574            (102063 /sec)
decisions             : 718            (0.00 % random) (127667 /sec)
propagations          : 13544          (2408250 /sec)
conflict literals     : 3719           (19.94 % deleted)
Memory used           : 13.00 MB
CPU time              : 0.005624 s

SATISFIABLE
